NAME:  as12
TYPE: ATSP
COMMENT: 13 city problem (Repetto)
DIMENSION:  13
EDGE_WEIGHT_TYPE: EXPLICIT
EDGE_WEIGHT_FORMAT: FULL_MATRIX
EDGE_WEIGHT_SECTION
155 278 139 136 114 140  26 158   2 196 223  42   4
 30 167 242 134 112 271 226  29 109 121 295 248  28
  1 234 138 131 245 226  31 118  79  85 215 209 262
165 123  61  32 276  55 101 239  35 159 173 112 204
259 245 232 276  37 191  33 249 110 219 124  58 108
281  84  47 107  32  66 298 156 168  68  20  65 206
110   6 152 192 137 169 211 140 186 141  99  26 296
228 169 109 281 299 250 268 176 172  86 295 152 262
 75  39 106 140 289  19  27 213 281 236 298 110 195
203 276 169 297 157  82 285 119  12 182 102 283 127
280 248 223 138  70  16 289  28 216 294 293 199 212
163  32 281   6 178 112 248 283 124 199  43  95  75
159 135 258 228 129  51  94 157  59 224 210 275   1
EOF
